171 1 118 168 7 151 11 25 141 173 178 20 111 60 106 42 196 66 29 64 32 105 162 124 21 114 127 147 112 77 122 166 85 52 126 74 95 91 8 65 145 78 81 50 163 146 193 22 61 79 41 164 58 24 55 192 177 30 119 170 160 128 16 93 108 98 152 179 191 121 101 70 161 135 123 76 86 53 130 69 176 133 159 137 13 188 89 19 72 5 73 185 48 195 12 144 15 46 40 182 90 174 38 117 150 99 84 116 33 51 131 109 165 158 157 35 139 14 62 28 80 197 43 134 34 83 17 97 54 136 47 186 31 172 149 18 189 103 104 49 155 26 0 181 63 140 180 125 75 94 148 194 71 132 190 27 183 143 45 92 37 120 107 87 4 156 44 23 198 3 57 142 154 67 36 199 59 56 88 175 39 10 100 184 115 82 2 138 129 169 187 102 6 113 96 9 68 167 153 110 

